56600.0
1831
0 1 2 3 5 8 9 10 11 12 13 14 15 16 18 19 20 21 22 26 27 29 30 32 33 35 38 40 43 44 47 48 51 53 54 55 56 58 59 61 62 64 65 66 68 69 70 73 74 75 76 77 79 82 84 86 88 89 90 91 93 95 96 97 98 99 